# Na4Cl4
lattice_vector   5.69169400000000003104   0.00000000000000000000   0.00000000000000000000
lattice_vector   0.00000000000000000000   5.69169400000000003104   0.00000000000000000000
lattice_vector   0.00000000000000000000   0.00000000000000000000   5.69169400000000003104
atom_frac     0.00000000000000000000   0.00000000000000000000   0.00000000000000000000 Na
atom_frac     0.50000000000000000000   0.00000000000000000000   0.00000000000000000000 Cl
atom_frac     0.00000000000000000000   0.50000000000000000000   0.50000000000000000000 Na
atom_frac     0.50000000000000000000   0.50000000000000000000   0.50000000000000000000 Cl
atom_frac     0.50000000000000000000   0.00000000000000000000   0.50000000000000000000 Na
atom_frac     0.00000000000000000000   0.00000000000000000000   0.50000000000000000000 Cl
atom_frac     0.50000000000000000000   0.50000000000000000000   0.00000000000000000000 Na
atom_frac     0.00000000000000000000   0.50000000000000000000   0.00000000000000000000 Cl